(set-info :smt-lib-version 2.6)
(set-logic QF_UFLRA)
(set-info :source |
MathSat group

|)
(set-info :category "random")
(set-info :status unsat)
(declare-fun x0 () Real)
(declare-fun x1 () Real)
(declare-fun x2 () Real)
(declare-fun x3 () Real)
(declare-fun x4 () Real)
(declare-fun x5 () Real)
(declare-fun x6 () Real)
(declare-fun x7 () Real)
(declare-fun x8 () Real)
(declare-fun x9 () Real)
(declare-fun x10 () Real)
(declare-fun x11 () Real)
(declare-fun x12 () Real)
(declare-fun x13 () Real)
(declare-fun x14 () Real)
(declare-fun x15 () Real)
(declare-fun x16 () Real)
(declare-fun x17 () Real)
(declare-fun x18 () Real)
(declare-fun x19 () Real)
(declare-fun x20 () Real)
(declare-fun x21 () Real)
(declare-fun x22 () Real)
(declare-fun x23 () Real)
(declare-fun x24 () Real)
(declare-fun x25 () Real)
(declare-fun x26 () Real)
(declare-fun x27 () Real)
(declare-fun x28 () Real)
(declare-fun x29 () Real)
(declare-fun x30 () Real)
(declare-fun x31 () Real)
(declare-fun x32 () Real)
(declare-fun x33 () Real)
(declare-fun x34 () Real)
(declare-fun x35 () Real)
(declare-fun x36 () Real)
(declare-fun x37 () Real)
(declare-fun x38 () Real)
(declare-fun x39 () Real)
(declare-fun x40 () Real)
(declare-fun x41 () Real)
(declare-fun x42 () Real)
(declare-fun x43 () Real)
(declare-fun x44 () Real)
(declare-fun x45 () Real)
(declare-fun x46 () Real)
(declare-fun x47 () Real)
(declare-fun x48 () Real)
(declare-fun x49 () Real)
(declare-fun f0_1 (Real) Real)
(declare-fun f0_2 (Real Real) Real)
(declare-fun f0_3 (Real Real Real) Real)
(declare-fun f0_4 (Real Real Real Real) Real)
(declare-fun P0 () Bool)
(declare-fun P1 () Bool)
(declare-fun P2 () Bool)
(declare-fun P3 () Bool)
(declare-fun P4 () Bool)
(declare-fun P5 () Bool)
(declare-fun P6 () Bool)
(declare-fun P7 () Bool)
(declare-fun P8 () Bool)
(declare-fun P9 () Bool)
(declare-fun P10 () Bool)
(declare-fun P11 () Bool)
(declare-fun P12 () Bool)
(declare-fun P13 () Bool)
(declare-fun P14 () Bool)
(declare-fun P15 () Bool)
(declare-fun P16 () Bool)
(declare-fun P17 () Bool)
(declare-fun P18 () Bool)
(declare-fun P19 () Bool)
(declare-fun P20 () Bool)
(declare-fun P21 () Bool)
(declare-fun P22 () Bool)
(declare-fun P23 () Bool)
(declare-fun P24 () Bool)
(declare-fun P25 () Bool)
(declare-fun P26 () Bool)
(declare-fun P27 () Bool)
(declare-fun P28 () Bool)
(declare-fun P29 () Bool)
(declare-fun P30 () Bool)
(declare-fun P31 () Bool)
(declare-fun P32 () Bool)
(declare-fun P33 () Bool)
(declare-fun P34 () Bool)
(declare-fun P35 () Bool)
(declare-fun P36 () Bool)
(declare-fun P37 () Bool)
(declare-fun P38 () Bool)
(declare-fun P39 () Bool)
(declare-fun P40 () Bool)
(declare-fun P41 () Bool)
(declare-fun P42 () Bool)
(declare-fun P43 () Bool)
(declare-fun P44 () Bool)
(declare-fun P45 () Bool)
(declare-fun P46 () Bool)
(declare-fun P47 () Bool)
(declare-fun P48 () Bool)
(declare-fun P49 () Bool)
(assert (let ((?v_62 (* 23 x31)) (?v_23 (< (- (- (* 16 x43) (* 3 x45)) (* 18 x3)) 16)) (?v_145 (= (- (- (* 8 x27) (* 3 x38)) (* 7 x35)) 10)) (?v_108 (= (- (+ (* 24 x24) (* 8 x30)) (* 20 x14)) 10)) (?v_150 (< (- (- (* 20 x7) (* 8 x24)) (* 26 x44)) 15)) (?v_249 (= (- (- (* 4 x0) (* 25 x23)) (* 19 x16)) 3)) (?v_152 (distinct (f0_1 x13) (f0_2 x1 x14))) (?v_12 (distinct x13 x13)) (?v_93 (distinct (f0_1 x28) (f0_2 x45 x18))) (?v_177 (= (f0_2 x15 x26) x1)) (?v_81 (distinct (f0_2 x5 x46) x49)) (?v_123 (= x48 (f0_1 x7))) (?v_26 (distinct x20 (f0_1 x45))) (?v_17 (f0_1 x12))) (let ((?v_113 (distinct (f0_1 x31) ?v_17)) (?v_67 (distinct x44 (f0_2 x17 x22))) (?v_22 (distinct (f0_1 x35) (f0_2 x37 x22))) (?v_88 (distinct x27 (f0_2 x4 x43))) (?v_105 (f0_1 x49)) (?v_134 (f0_1 x9))) (let ((?v_114 (distinct ?v_105 ?v_134)) (?v_2 (f0_1 x16))) (let ((?v_46 (= (f0_1 x44) ?v_2)) (?v_1 (distinct (f0_2 x42 x33) (f0_2 x47 x32))) (?v_178 (= (f0_2 x34 x34) (f0_1 x39))) (?v_169 (= x2 (f0_2 x33 x14))) (?v_255 (distinct ?v_105 (f0_2 x4 x30))) (?v_18 (f0_1 x43))) (let ((?v_11 (distinct (f0_1 x38) ?v_18)) (?v_130 (distinct x37 (f0_1 x47))) (?v_107 (= (f0_1 x30) x36)) (?v_32 (f0_1 x21))) (let ((?v_39 (= ?v_17 ?v_32)) (?v_172 (distinct (f0_1 x0) x31)) (?v_16 (= x36 (f0_1 x2))) (?v_50 (distinct ?v_2 (f0_2 x20 x34))) (?v_35 (distinct ?v_18 (f0_2 x1 x30))) (?v_61 (= x42 (f0_2 x24 x10))) (?v_229 (distinct x24 (f0_2 x29 x3))) (?v_131 (distinct (f0_2 x5 x6) (f0_1 x36))) (?v_19 (f0_1 x6))) (let ((?v_103 (= ?v_19 ?v_19)) (?v_119 (distinct (f0_1 x41) (f0_2 x11 x16))) (?v_49 (= (f0_2 x40 x46) (f0_2 x21 x41))) (?v_125 (= x20 (f0_2 x27 x34))) (?v_31 (distinct (f0_2 x5 x20) ?v_17)) (?v_176 (= (f0_2 x8 x12) x46)) (?v_4 (distinct x2 x20)) (?v_158 (distinct (f0_2 x13 x35) (f0_2 x0 x23))) (?v_166 (distinct x7 x45)) (?v_40 (= (f0_2 x22 x21) (f0_2 x49 x31))) (?v_124 (= (f0_2 x20 x13) (f0_1 x20))) (?v_206 (distinct (f0_2 x0 x46) (f0_1 x8))) (?v_110 (distinct (f0_2 x25 x24) x10)) (?v_38 (f0_1 x48))) (let ((?v_52 (distinct x1 ?v_38)) (?v_90 (= (f0_1 x5) x10)) (?v_75 (distinct x26 ?v_38)) (?v_135 (= x1 (f0_2 x4 x13))) (?v_64 (= (f0_1 x19) x18)) (?v_60 (distinct ?v_32 ?v_18)) (?v_72 (= (f0_2 x34 x45) x8)) (?v_155 (distinct (f0_2 x18 x12) ?v_134)) (?v_24 (= (f0_1 x24) (f0_2 x4 x11))) (?v_0 (not ?v_1)) (?v_5 (not P40)) (?v_25 (not P42)) (?v_45 (not P28))) (let ((?v_54 (not ?v_135)) (?v_3 (not ?v_176)) (?v_231 (not ?v_50)) (?v_126 (not ?v_169)) (?v_30 (not ?v_249)) (?v_232 (not P30)) (?v_6 (not ?v_206)) (?v_142 (not P5)) (?v_116 (not P3)) (?v_29 (not ?v_125)) (?v_34 (not P34)) (?v_154 (not P6)) (?v_83 (not ?v_26)) (?v_28 (not ?v_131)) (?v_197 (not ?v_22)) (?v_77 (not ?v_166)) (?v_200 (not P7)) (?v_118 (not P27)) (?v_68 (not ?v_11)) (?v_120 (not P14)) (?v_101 (not ?v_12)) (?v_137 (not ?v_16)) (?v_37 (not P8)) (?v_188 (not P25)) (?v_115 (not P21)) (?v_147 (not ?v_113)) (?v_48 (not P4)) (?v_80 (not ?v_103)) (?v_95 (not ?v_229)) (?v_66 (not ?v_23)) (?v_183 (not P47)) (?v_228 (not P23)) (?v_33 (not ?v_39)) (?v_187 (not P37)) (?v_91 (not P19)) (?v_85 (not ?v_93)) (?v_168 (not ?v_35)) (?v_117 (not ?v_75)) (?v_136 (not P39)) (?v_244 (not P31)) (?v_220 (not P17)) (?v_59 (not ?v_152)) (?v_141 (not ?v_49)) (?v_112 (not P35)) (?v_219 (not ?v_52)) (?v_181 (not ?v_158)) (?v_153 (or ?v_35 ?v_4)) (?v_180 (not P1)) (?v_159 (not ?v_88)) (?v_254 (not P9)) (?v_99 (not ?v_60)) (?v_109 (not ?v_61)) (?v_122 (not ?v_67)) (?v_98 (not P43)) (?v_175 (not P46)) (?v_89 (not ?v_81)) (?v_211 (not P49)) (?v_97 (not P12)) (?v_226 (not ?v_119)) (?v_194 (not ?v_172)) (?v_185 (not P32)) (?v_132 (not P44)) (?v_161 (not ?v_255)) (?v_170 (not ?v_107)) (?v_139 (not ?v_108)) (?v_111 (not ?v_110)) (?v_227 (not ?v_46)) (?v_138 (not ?v_114)) (?v_148 (not P11)) (?v_199 (not ?v_72)) (?v_224 (not P20)) (?v_160 (not P24)) (?v_144 (not P29)) (?v_133 (not ?v_31)) (?v_240 (not ?v_124)) (?v_217 (not P0)) (?v_222 (not P36)) (?v_163 (not ?v_150)) (?v_243 (not ?v_155)) (?v_235 (not P16)) (?v_201 (not P13)) (?v_191 (not P10)) (?v_182 (not ?v_177)) (?v_257 (not ?v_123)) (?v_190 (not P33)) (?v_210 (not ?v_178)) (?v_241 (not P15)) (?v_250 (not P26)) (?v_214 (not ?v_145)) (?v_248 (not ?v_90)) (?v_215 (not P38)) (?v_221 (not P22)) (?v_208 (not ?v_4)) (?v_216 (not ?v_130)) (?v_252 (not P18)) (?v_233 (not ?v_24)) (?v_251 (not ?v_64)) (?v_245 (not P41)) (?v_247 (not ?v_40)) (?v_258 (not P45)) (?v_259 (not P2)) (?v_36 (distinct (- (* 24 x6) (* 2 x48)) 19))) (let ((?v_84 (not ?v_36)) (?v_47 (<= (+ (* 20 x35) (* 10 x38)) 17)) (?v_79 (< (- (+ (* 23 x37) (* 24 x29)) 0) 23))) (let ((?v_53 (not ?v_79)) (?v_56 (not ?v_47)) (?v_223 (<= (+ (- (* 11 x20) (* 6 x45)) x12) 5))) (let ((?v_246 (not ?v_223)) (?v_13 (= (- (- (* (- 18) x13) (* 13 x6)) (* 19 x7)) 23)) (?v_260 (<= (+ (- (* 12 x0) 0) (* 6 x4)) (- 13)))) (let ((?v_10 (not ?v_260)) (?v_43 (<= (- (+ (* (- 21) x22) (* 3 x47)) (* 4 x23)) (- 6)))) (let ((?v_7 (not ?v_43)) (?v_86 (< (+ (- (* 2 x15) (* 22 x17)) (* 2 x39)) (- 17)))) (let ((?v_63 (not ?v_86)) (?v_9 (distinct (- (- (* 20 x25) (* 24 x14)) (* 16 x29)) (- 19))) (?v_173 (distinct (+ (* (- 10) x25) (* 17 x24) (* 23 x20)) 18))) (let ((?v_57 (not ?v_173)) (?v_15 (< (- (- (* (- 27) x32) (* 22 x40)) (* 21 x22)) 2)) (?v_165 (distinct (- (* 4 x21) 0) (- 21))) (?v_14 (<= (- (+ (* 5 x5) (* 25 x9)) (* 6 x25)) (- 6))) (?v_8 (< (- (- (* 18 x18) (* 19 x49)) 0) (- 9))) (?v_96 (<= (+ (- (* (- 9) x35) (* 14 x49)) (* 21 x20)) (- 1)))) (let ((?v_20 (not ?v_96)) (?v_78 (= (+ (- (* (- 19) x46) (* 17 x49)) (* 25 x12)) (- 1))) (?v_94 (<= (+ (* (- 26) x41) (* 14 x44) (* 7 x49)) (- 10)))) (let ((?v_184 (not ?v_94)) (?v_51 (* (- 16) x36))) (let ((?v_42 (= (+ ?v_51 x7 (* 23 x5)) 24)) (?v_186 (<= (- (+ (* (- 6) x17) (* 7 x13)) (* 14 x13)) (- 21))) (?v_27 (<= (+ (- (* (- 24) x26) 0) (* 13 x17)) 23)) (?v_151 (<= (- (* (- 23) x34) (* 16 x37)) (- 2))) (?v_41 (< (- (- (* (- 20) x9) (* 16 x45)) x26) 9)) (?v_21 (not ?v_14)) (?v_253 (not ?v_15)) (?v_234 (< (- (- (* 18 x36) (* 19 x34)) (* 21 x4)) (- 24)))) (let ((?v_71 (not ?v_234)) (?v_69 (<= (- (+ (* 22 x41) (* 22 x32)) (* 23 x10)) (- 28))) (?v_179 (not ?v_8)) (?v_195 (<= (+ (* 14 x6) (* 23 x14) (* 21 x17)) (- 1))) (?v_44 (< (- (+ (* (- 27) x25) (* 14 x35)) (* 11 x11)) (- 13)))) (let ((?v_207 (not ?v_44)) (?v_196 (< (+ (- (* (- 11) x2) (* 22 x49)) (* 7 x3)) 22)) (?v_73 (not ?v_42)) (?v_82 (<= (- (- (* (- 4) x16) (* 2 x45)) 0) (- 22))) (?v_106 (<= (- (- ?v_51 (* 7 x18)) (* 17 x35)) (- 2)))) (let ((?v_58 (not ?v_106)) (?v_149 (distinct (- (* (- 12) x15) (* 18 x5)) 28)) (?v_74 (< (- (+ (* 2 x26) (* 5 x28)) (* 13 x40)) (- 14))) (?v_157 (<= (- (+ (* (- 20) x0) (* 15 x40)) (* 3 x10)) 26))) (let ((?v_87 (not ?v_157)) (?v_55 (< (- (+ (* (- 9) x31) (* 19 x20)) (* 15 x5)) (- 29)))) (let ((?v_140 (not ?v_55)) (?v_189 (< (+ (- (* 11 x14) (* 6 x1)) ?v_62) (- 16)))) (let ((?v_174 (not ?v_189)) (?v_65 (= (- (+ (* (- 11) x1) (* 3 x26)) (* 2 x5)) (- 6))) (?v_70 (< (+ (- (* (- 15) x0) (* 5 x29)) ?v_62) (- 3)))) (let ((?v_203 (not ?v_70)) (?v_76 (distinct (+ (* (- 15) x32) (* 27 x47) (* 19 x12)) (- 7))) (?v_128 (< (* 3 x15) (- 10)))) (let ((?v_156 (not ?v_128)) (?v_92 (< (- (+ (* (- 21) x33) (* 9 x7)) (* 8 x31)) (- 25)))) (let ((?v_102 (not ?v_92)) (?v_238 (not ?v_74)) (?v_104 (not ?v_76)) (?v_236 (not ?v_9)) (?v_100 (not ?v_78)) (?v_167 (not ?v_82)) (?v_237 (< (+ (* 20 x10) (* 3 x49) (* 7 x19)) (- 12)))) (let ((?v_143 (not ?v_237)) (?v_129 (or ?v_104 ?v_60)) (?v_121 (< (+ (- (* 8 x33) (* 22 x29)) (* 12 x30)) (- 23)))) (let ((?v_146 (not ?v_121)) (?v_164 (< (+ (* 17 x6) (* 7 x48) (* 16 x35)) (- 10))) (?v_127 (< (- (+ (* (- 17) x5) x8) (* 27 x16)) 8))) (let ((?v_239 (not ?v_127)) (?v_218 (not ?v_13)) (?v_205 (not ?v_27)) (?v_213 (not ?v_149)) (?v_256 (not ?v_151)) (?v_162 (<= (- (- (* (- 3) x43) (* 24 x39)) (* 3 x23)) (- 5))) (?v_198 (< (+ (- (* (- 14) x12) 0) (* 9 x16)) (- 24)))) (let ((?v_171 (not ?v_198)) (?v_225 (not ?v_162)) (?v_261 (or ?v_55 P28)) (?v_193 (not ?v_41)) (?v_212 (not ?v_69)) (?v_204 (not ?v_65)) (?v_192 (not ?v_186)) (?v_209 (not ?v_196)) (?v_202 (not ?v_195)) (?v_230 (not ?v_165)) (?v_242 (not ?v_164))) (and (and (and (and (and (and (and (and (and (and (and (and (and (and (and (and (and (and (and (and (and (and (and (and (and (and (and (and (and (and (and (and (and (and (and (and (and (and (and (and (and (and (and (and (and (and (and (and (and (and (and (and (and (and (and (and (and (and (and (and (and (and (and (and (and (and (and (and (and (and (and (and (and (and (and (and (and (and (and (and (and (and (and (and (and (and (and (and (and (and (and (and (and (and (and (and (and (and (and (and (and (and (and (and (and (and (and (and (and (and (and (and (and (and (and (and (and (and (and (and (and (and (and (and (and (and (and (and (and (and (and (and (and (and (and (and (and (and (and (and (and (and (and (and (and (and (and (and (and (and (and (and (and (and (and (and (and (and (and (and (and (and (and (and (and (and (and (and (and (and (and (and (and (and (and (and (and (and (and (and (and (and (and (and (and (and (and (and (and (and (and (and (and (and (and (and (and (and (and (and (and (and (and (and (and (and (and (and (and (and (and (and (and (and (and (and (and (and (and (and (and (and (and (and (and (and (and (and (and (and (and (and (and (and (and (and (and (and (and (and (and (and (and (and (and (and (and (and (and (and (and (and (and (and (and (and (and (and (and (and (and (and (and (and (and (and (and (and (and (and (and (and (and (and (and (and (and (and (and (and (and (and (and (and (and (and (and (and (and (and (and (and (and (and (and (and (and (and (and (and (and (and (and (and (and (and (and (and (and (and (and (and (and (and (and (and (and (and (and (and (and (and (and (and (and (and (and (and (and (and (and (and (and (and (and (and (and (and (and (and (and (and (and (and (and (and (and (and (and (and (and (and (and (and (and (and (and (and (and (and (and (and (and (and (and (and (and (and (and (and (and (and (and (and (and (and (and (and (and (and (and (and (and (and (and (and (and (and (and (and (and (and (and (and (and (and (and (and (and (and (and (and (and (and (and (and (and (and (and (and (and (and (and (and (and (and (and (and (and (and (and (and (and (and (and (and (and (and (and (and (and (and (and (and (and (and (and (and (and (and (and (and (and (and (and (and (and (and (and (and (and (and (and (and (and (and (and (and (and (and (and (and (and (and (and (and (and (and (and (and (and (and (and (and (and (and (and (and (and (and (and (and (and (and (and (and (and (and (and (and (and (and (and (and (and (and (and (and (and (and (and (and (and (and (and (and (and (and (and (and (and (and (and (and (and (and (and (and (and (and (and (and (and (and (and (and (and (and (and (and (and (and (and (and (and (and (and (and (and (and (and (and (and (and (and (and (and (and (and (and (and (and (and (and (and (and (and (and (and (and (and (and (and (and (and (and (and (and (and (and (and (and (and (and (and (and (and (and (and (and (and (and (and (and (and (and (and (and (and (and (and (and (and (and (and (and (and (and (and (or (or ?v_0 ?v_5) P26) (or (or ?v_0 ?v_81) ?v_13)) (or (or ?v_25 ?v_45) ?v_1)) (or (or ?v_54 ?v_4) ?v_3)) (or (or ?v_10 P15) ?v_231)) (or (or ?v_126 ?v_84) ?v_30)) (or (or ?v_46 ?v_232) ?v_49)) (or (or ?v_7 ?v_6) ?v_63)) (or (or ?v_9 ?v_3) ?v_57)) (or (or P31 ?v_142) ?v_116)) (or (or ?v_15 ?v_4) ?v_61)) (or (or P26 P40) ?v_29)) (or (or ?v_34 ?v_165) ?v_14)) (or (or ?v_5 ?v_107) ?v_8)) (or (or ?v_6 ?v_20) ?v_7)) (or (or ?v_8 P23) ?v_154)) (or (or ?v_83 ?v_9) ?v_28)) (or (or ?v_78 ?v_184) ?v_197)) (or (or ?v_77 ?v_200) P17)) (or (or ?v_118 ?v_68) ?v_120)) (or (or ?v_23 ?v_42) ?v_6)) (or (or ?v_101 ?v_90) ?v_10)) (or (or ?v_186 ?v_27) P15)) (or (or ?v_137 P48) ?v_151)) (or (or ?v_11 ?v_40) ?v_41)) (or (or P43 ?v_12) ?v_13)) (or (or ?v_31 ?v_37) P6)) (or (or ?v_188 ?v_21) P24)) (or (or ?v_115 ?v_253) ?v_16)) (or (or ?v_147 ?v_52) ?v_9)) (or (or ?v_71 ?v_35) ?v_24)) (or (or ?v_69 ?v_48) ?v_80)) (or (or ?v_95 ?v_20) ?v_21)) (or (or ?v_22 P2) P7)) (or (or P8 ?v_66) P43)) (or (or P6 P49) ?v_20)) (or (or P20 ?v_183) ?v_228)) (or (or P22 ?v_24) ?v_33)) (or (or ?v_179 ?v_25) ?v_26)) (or (or ?v_27 ?v_28) ?v_187)) (or (or ?v_29 ?v_195) ?v_30)) (or (or P6 ?v_47) ?v_53)) (or (or ?v_31 P27) ?v_60)) (or (or ?v_33 ?v_34) ?v_72)) (or (or ?v_91 ?v_85) ?v_67)) (or (or ?v_20 P44) ?v_64)) (or (or ?v_207 P6) ?v_35)) (or (or P13 ?v_110) ?v_124)) (or (or ?v_168 ?v_36) P47)) (or (or ?v_37 ?v_117) P11)) (or (or ?v_39 ?v_108) ?v_196)) (or (or ?v_150 ?v_40) ?v_41)) (or (or ?v_73 ?v_136) ?v_82)) (or (or ?v_244 ?v_43) ?v_220)) (or (or ?v_44 ?v_45) ?v_14)) (or (or ?v_46 ?v_56) ?v_59)) (or (or ?v_48 ?v_141) P24)) (or (or ?v_50 ?v_49) ?v_58)) (or (or ?v_112 ?v_149) ?v_219)) (or (or ?v_30 ?v_53) ?v_74)) (or (or ?v_181 ?v_54) ?v_130)) (or ?v_153 ?v_87)) (or (or ?v_140 ?v_180) ?v_40)) (or (or ?v_159 P10) ?v_55)) (or (or ?v_56 ?v_11) P22)) (or (or ?v_114 ?v_48) ?v_254)) (or (or ?v_46 ?v_174) ?v_57)) (or (or ?v_58 ?v_59) ?v_99)) (or (or ?v_109 ?v_65) ?v_203)) (or (or ?v_63 ?v_16) P6)) (or (or ?v_64 ?v_76) P8)) (or (or ?v_3 ?v_65) ?v_66)) (or (or ?v_122 ?v_156) ?v_41)) (or (or ?v_68 ?v_69) ?v_102)) (or (or ?v_98 P5) ?v_66)) (or (or ?v_50 ?v_70) P36)) (or (or P16 ?v_71) ?v_72)) (or (or ?v_48 ?v_73) ?v_175)) (or (or P12 ?v_238) ?v_75)) (or (or ?v_178 ?v_4) ?v_30)) (or (or P24 ?v_30) ?v_104)) (or (or ?v_236 ?v_44) ?v_77)) (or (or P44 ?v_100) P19)) (or (or ?v_79 P42) ?v_80)) (or (or P15 ?v_89) ?v_167)) (or (or P36 ?v_6) ?v_83)) (or (or ?v_211 ?v_246) ?v_84)) (or (or ?v_85 ?v_86) ?v_97)) (or (or ?v_35 P19) ?v_20)) (or (or ?v_87 ?v_88) ?v_39)) (or (or ?v_89 ?v_123) ?v_26)) (or (or ?v_226 ?v_47) ?v_194)) (or (or ?v_90 ?v_56) ?v_91)) (or (or ?v_92 ?v_93) ?v_94)) (or (or ?v_30 ?v_95) P44)) (or (or ?v_96 ?v_185) ?v_84)) (or (or ?v_97 ?v_143) ?v_44)) (or (or ?v_132 ?v_98) ?v_99)) (or (or ?v_37 ?v_100) ?v_64)) (or (or P49 ?v_65) ?v_101)) (or (or ?v_102 ?v_103) P42)) (or ?v_129 ?v_161)) (or (or P39 ?v_30) ?v_106)) (or (or ?v_146 ?v_30) ?v_164)) (or (or ?v_170 ?v_139) P33)) (or (or ?v_109 P16) ?v_111)) (or (or ?v_69 ?v_227) ?v_58)) (or (or ?v_111 ?v_112) P36)) (or (or ?v_113 ?v_114) ?v_115)) (or (or ?v_177 ?v_116) ?v_138)) (or (or P4 ?v_239) ?v_117)) (or (or ?v_53 ?v_148) P30)) (or (or ?v_34 ?v_87) ?v_118)) (or (or P48 ?v_111) ?v_119)) (or (or ?v_120 ?v_79) P44)) (or (or P45 ?v_112) ?v_121)) (or (or ?v_199 ?v_224) ?v_160)) (or (or ?v_144 ?v_66) ?v_109)) (or (or ?v_53 ?v_133) ?v_87)) (or (or P32 ?v_122) ?v_90)) (or (or ?v_123 P6) ?v_80)) (or (or ?v_240 ?v_125) ?v_126)) (or (or ?v_3 ?v_23) P23)) (or (or ?v_218 ?v_89) ?v_47)) (or (or ?v_101 ?v_84) ?v_118)) (or (or P10 P26) ?v_90)) (or (or ?v_127 ?v_92) P15)) (or (or ?v_128 ?v_92) ?v_20)) (or ?v_129 ?v_130)) (or (or ?v_131 ?v_145) ?v_132)) (or (or ?v_117 ?v_133) ?v_104)) (or (or ?v_42 ?v_133) ?v_36)) (or (or ?v_123 ?v_84) ?v_155)) (or (or ?v_135 ?v_118) P20)) (or (or ?v_136 ?v_93) ?v_65)) (or (or ?v_107 ?v_137) P14)) (or (or ?v_138 ?v_132) ?v_139)) (or (or P24 ?v_140) ?v_217)) (or (or ?v_35 ?v_98) ?v_141)) (or (or ?v_142 ?v_143) ?v_222)) (or (or ?v_100 ?v_55) ?v_121)) (or (or P13 ?v_3) P29)) (or (or ?v_135 ?v_144) P46)) (or (or P33 ?v_78) ?v_35)) (or (or ?v_145 P37) ?v_56)) (or (or ?v_115 P6) ?v_76)) (or (or P44 ?v_205) ?v_146)) (or (or ?v_108 ?v_147) ?v_148)) (or (or P20 ?v_20) ?v_213)) (or (or ?v_163 ?v_256) P3)) (or (or ?v_143 ?v_152) P18)) (or (or ?v_13 ?v_14) ?v_162)) (or ?v_153 ?v_101)) (or (or ?v_70 ?v_25) ?v_122)) (or (or ?v_116 ?v_114) P48)) (or (or ?v_145 ?v_154) ?v_39)) (or (or ?v_92 ?v_171) ?v_8)) (or (or ?v_21 ?v_243) ?v_156)) (or (or P28 ?v_131) ?v_157)) (or (or ?v_158 ?v_159) ?v_235)) (or (or ?v_101 ?v_160) ?v_147)) (or (or ?v_161 ?v_225) ?v_61)) (or (or P17 P28) P44)) (or (or ?v_163 ?v_44) P9)) (or (or P25 ?v_201) ?v_143)) (or (or ?v_160 P11) ?v_63)) (or (or ?v_60 ?v_164) P26)) (or (or ?v_122 ?v_165) ?v_166)) (or (or ?v_167 ?v_92) ?v_154)) (or (or (not P48) ?v_168) ?v_141)) (or (or ?v_15 P1) ?v_43)) (or (or P6 ?v_49) ?v_70)) (or (or P14 P28) ?v_75)) (or (or ?v_95 P27) ?v_137)) (or (or ?v_169 ?v_170) ?v_87)) (or (or ?v_41 ?v_24) ?v_110)) (or (or ?v_7 ?v_96) ?v_78)) (or (or ?v_171 ?v_61) ?v_131)) (or (or ?v_69 ?v_172) ?v_170)) (or ?v_261 ?v_144)) (or (or ?v_173 ?v_53) ?v_148)) (or (or ?v_34 ?v_148) ?v_193)) (or (or P27 ?v_174) ?v_80)) (or (or ?v_24 P16) ?v_113)) (or (or ?v_77 ?v_53) ?v_114)) (or (or ?v_108 ?v_90) ?v_5)) (or (or ?v_212 ?v_140) ?v_136)) (or (or ?v_93 P29) ?v_49)) (or (or ?v_67 ?v_166) ?v_58)) (or (or ?v_175 ?v_176) ?v_43)) (or (or ?v_22 ?v_68) ?v_27)) (or (or ?v_191 ?v_182) ?v_22)) (or (or ?v_58 ?v_257) P10)) (or (or ?v_148 ?v_152) ?v_190)) (or (or P20 P20) ?v_92)) (or (or ?v_160 ?v_137) ?v_56)) (or (or ?v_135 ?v_21) ?v_159)) (or (or ?v_127 ?v_210) ?v_113)) (or (or P7 ?v_179) ?v_118)) (or (or ?v_11 P21) ?v_180)) (or (or ?v_181 ?v_28) ?v_113)) (or (or ?v_23 ?v_151) ?v_182)) (or (or ?v_138 P33) ?v_29)) (or (or ?v_108 ?v_108) P35)) (or (or ?v_91 ?v_143) P1)) (or (or ?v_159 ?v_183) ?v_204)) (or (or ?v_155 ?v_141) ?v_184)) (or (or ?v_90 ?v_100) P6)) (or (or ?v_71 ?v_185) ?v_79)) (or (or ?v_34 ?v_33) ?v_192)) (or (or ?v_15 ?v_3) ?v_81)) (or (or ?v_27 ?v_127) ?v_59)) (or (or ?v_187 P13) ?v_107)) (or (or ?v_31 ?v_118) ?v_7)) (or (or ?v_44 ?v_74) ?v_241)) (or (or ?v_98 ?v_115) P10)) (or (or ?v_188 ?v_125) ?v_189)) (or (or ?v_58 P35) ?v_151)) (or (or ?v_190 ?v_191) ?v_175)) (or (or P23 P16) ?v_13)) (or (or ?v_74 P25) ?v_191)) (or (or ?v_192 ?v_193) ?v_88)) (or (or ?v_194 ?v_39) P12)) (or (or ?v_21 ?v_195) ?v_10)) (or (or P1 ?v_100) ?v_151)) (or (or P28 ?v_184) ?v_209)) (or (or P19 ?v_197) ?v_166)) (or (or ?v_176 P44) ?v_250)) (or (or ?v_14 ?v_57) ?v_91)) (or (or ?v_202 ?v_214) P39)) (or (or ?v_198 P9) ?v_15)) (or (or ?v_87 ?v_81) ?v_85)) (or (or ?v_123 ?v_248) ?v_87)) (or (or ?v_97 P16) P1)) (or (or ?v_199 ?v_39) ?v_57)) (or (or ?v_200 ?v_43) ?v_36)) (or (or ?v_136 ?v_201) ?v_37)) (or (or ?v_202 P2) ?v_104)) (or (or ?v_215 ?v_163) P11)) (or (or ?v_30 ?v_140) ?v_152)) (or (or ?v_30 ?v_63) P29)) (or (or P16 ?v_9) ?v_201)) (or (or ?v_151 ?v_230) ?v_121)) (or (or ?v_199 P31) ?v_130)) (or (or ?v_44 ?v_85) ?v_0)) (or (or P21 ?v_12) P5)) (or (or P3 ?v_35) ?v_131)) (or (or ?v_203 P44) ?v_196)) (or (or ?v_57 P41) ?v_27)) (or (or P25 ?v_126) ?v_99)) (or (or ?v_101 ?v_67) ?v_155)) (or (or ?v_204 ?v_35) ?v_205)) (or (or ?v_160 ?v_162) ?v_106)) (or (or ?v_205 ?v_221) ?v_16)) (or (or ?v_206 P23) ?v_162)) (or (or P25 P33) ?v_95)) (or (or ?v_122 ?v_3) ?v_40)) (or (or ?v_74 ?v_207) ?v_208)) (or (or ?v_156 ?v_199) ?v_132)) (or (or ?v_197 ?v_104) ?v_208)) (or (or ?v_143 ?v_209) P46)) (or (or ?v_46 ?v_116) ?v_199)) (or (or ?v_210 ?v_211) ?v_96)) (or (or ?v_25 ?v_92) ?v_50)) (or (or ?v_212 ?v_4) ?v_207)) (or (or ?v_208 ?v_156) ?v_213)) (or (or ?v_114 ?v_8) ?v_20)) (or (or P29 P5) P38)) (or (or ?v_102 ?v_30) ?v_152)) (or (or ?v_39 ?v_21) ?v_69)) (or (or ?v_152 P33) ?v_11)) (or (or ?v_16 ?v_72) ?v_210)) (or (or P23 ?v_71) ?v_53)) (or (or ?v_214 ?v_216) ?v_215)) (or (or ?v_151 P43) ?v_97)) (or (or ?v_252 ?v_73) ?v_216)) (or (or ?v_217 ?v_218) ?v_84)) (or (or P41 P13) ?v_177)) (or (or ?v_219 ?v_172) ?v_220)) (or (or ?v_132 ?v_221) ?v_97)) (or (or ?v_48 ?v_86) ?v_121)) (or (or ?v_222 ?v_218) ?v_69)) (or (or ?v_169 P20) ?v_29)) (or (or ?v_83 ?v_223) ?v_242)) (or (or ?v_217 ?v_195) P28)) (or (or ?v_39 ?v_132) P5)) (or (or ?v_80 ?v_224) ?v_225)) (or (or ?v_147 ?v_72) ?v_157)) (or (or ?v_107 ?v_226) ?v_212)) (or (or ?v_96 ?v_227) P11)) (or (or ?v_94 ?v_21) P24)) (or (or ?v_130 ?v_157) ?v_112)) (or (or ?v_170 P15) ?v_78)) (or (or ?v_68 ?v_84) ?v_192)) (or (or ?v_149 ?v_76) ?v_144)) (or (or ?v_228 ?v_135) ?v_101)) (or (or ?v_187 ?v_167) ?v_114)) (or (or ?v_140 ?v_75) ?v_229)) (or (or ?v_89 ?v_189) P25)) (or (or P7 ?v_161) ?v_56)) (or (or P7 ?v_5) ?v_191)) (or (or ?v_224 ?v_86) ?v_136)) (or (or ?v_4 ?v_101) ?v_204)) (or (or ?v_16 P19) ?v_126)) (or (or ?v_137 ?v_88) ?v_199)) (or (or ?v_74 P33) ?v_164)) (or (or ?v_194 P49) ?v_230)) (or (or ?v_231 ?v_126) ?v_89)) (or (or ?v_68 ?v_122) ?v_163)) (or (or ?v_59 ?v_74) ?v_33)) (or (or ?v_227 ?v_165) ?v_72)) (or (or ?v_233 ?v_196) ?v_82)) (or (or ?v_108 ?v_232) ?v_233)) (or (or ?v_172 ?v_52) ?v_234)) (or (or P46 ?v_11) P25)) (or (or ?v_201 ?v_207) ?v_235)) (or (or P29 ?v_227) ?v_118)) (or (or P20 P33) ?v_230)) (or (or ?v_63 ?v_236) ?v_187)) (or (or ?v_198 ?v_116) ?v_172)) (or (or ?v_97 ?v_44) ?v_221)) (or (or P42 ?v_104) P24)) (or (or ?v_237 P19) ?v_175)) (or (or ?v_57 ?v_22) ?v_238)) (or (or P9 P30) ?v_210)) (or (or ?v_239 ?v_212) ?v_44)) (or (or ?v_0 ?v_166) ?v_34)) (or (or ?v_201 ?v_49) P18)) (or (or ?v_182 P17) ?v_201)) (or (or ?v_119 P19) ?v_26)) (or (or ?v_80 ?v_117) ?v_213)) (or (or ?v_195 P1) P8)) (or (or ?v_139 ?v_104) ?v_21)) (or (or ?v_218 ?v_3) ?v_106)) (or (or P8 ?v_85) ?v_61)) (or (or ?v_126 ?v_116) ?v_178)) (or (or ?v_71 P5) ?v_82)) (or (or ?v_81 ?v_182) ?v_157)) (or (or ?v_174 ?v_50) ?v_124)) (or (or ?v_218 ?v_160) ?v_35)) (or (or ?v_74 ?v_3) ?v_220)) (or (or ?v_61 P40) ?v_40)) (or (or ?v_94 ?v_119) P27)) (or (or ?v_24 ?v_212) ?v_12)) (or (or ?v_69 P21) ?v_237)) (or (or ?v_223 ?v_203) ?v_34)) (or (or ?v_12 ?v_195) ?v_45)) (or (or ?v_210 ?v_85) ?v_190)) (or (or ?v_47 ?v_43) ?v_154)) (or (or ?v_45 ?v_16) P22)) (or (or P13 ?v_132) ?v_1)) (or (or P33 ?v_87) P1)) (or (or ?v_240 ?v_79) ?v_176)) (or (or P5 ?v_99) ?v_239)) (or (or ?v_183 P31) ?v_174)) (or (or ?v_84 ?v_13) ?v_1)) (or (or ?v_203 ?v_251) ?v_120)) (or (or ?v_45 P8) ?v_179)) (or (or ?v_245 ?v_68) ?v_133)) (or (or ?v_236 ?v_110) ?v_109)) (or (or ?v_230 ?v_237) ?v_145)) (or (or ?v_184 ?v_154) ?v_220)) (or (or ?v_241 ?v_225) P48)) (or (or P42 ?v_56) ?v_242)) (or (or ?v_14 ?v_8) ?v_218)) (or (or ?v_142 ?v_170) P47)) (or (or ?v_57 ?v_36) ?v_120)) (or (or P33 P43) P12)) (or (or ?v_202 P15) ?v_76)) (or (or P10 ?v_170) ?v_143)) (or (or ?v_8 ?v_243) ?v_187)) (or (or ?v_40 P20) ?v_148)) (or (or ?v_103 P10) ?v_179)) (or (or ?v_127 ?v_222) ?v_165)) (or (or ?v_61 P17) ?v_149)) (or (or ?v_201 ?v_244) P6)) (or (or P46 ?v_87) ?v_173)) (or (or ?v_227 ?v_214) ?v_245)) (or (or ?v_113 P35) ?v_67)) (or (or ?v_160 ?v_118) ?v_188)) (or (or P31 ?v_204) ?v_246)) (or (or ?v_152 ?v_152) P7)) (or (or ?v_245 ?v_107) ?v_90)) (or (or P43 ?v_213) ?v_78)) (or (or ?v_247 ?v_94) ?v_39)) (or (or ?v_231 ?v_52) ?v_132)) (or (or ?v_61 P42) ?v_237)) (or (or P33 ?v_118) ?v_227)) (or (or ?v_196 ?v_141) ?v_87)) (or (or ?v_231 P21) ?v_169)) (or (or ?v_3 ?v_151) ?v_128)) (or (or ?v_162 ?v_120) ?v_56)) (or (or ?v_143 ?v_247) ?v_236)) (or (or ?v_248 ?v_11) ?v_82)) (or (or ?v_123 ?v_177) ?v_55)) (or (or P32 ?v_223) ?v_224)) (or (or ?v_220 ?v_204) ?v_235)) (or (or P15 ?v_180) ?v_149)) (or (or P28 P45) ?v_58)) (or (or P33 ?v_249) ?v_185)) (or (or ?v_216 ?v_82) P42)) (or (or ?v_114 ?v_124) ?v_79)) (or (or ?v_48 ?v_207) ?v_144)) (or (or P8 ?v_81) ?v_47)) (or (or ?v_195 ?v_194) P43)) (or (or ?v_115 ?v_115) P26)) (or (or ?v_155 ?v_124) ?v_53)) (or (or ?v_64 ?v_127) ?v_136)) (or (or ?v_159 ?v_21) ?v_229)) (or (or ?v_98 ?v_26) ?v_142)) (or (or P29 ?v_33) ?v_181)) (or (or ?v_83 ?v_185) ?v_174)) (or (or P32 ?v_46) ?v_258)) (or (or ?v_137 ?v_250) ?v_245)) (or (or P25 ?v_158) ?v_102)) (or (or P31 ?v_106) ?v_159)) (or (or ?v_151 ?v_113) ?v_28)) (or (or ?v_108 P36) ?v_234)) (or (or P8 ?v_11) ?v_101)) (or (or ?v_120 ?v_195) ?v_93)) (or (or P34 ?v_202) ?v_212)) (or (or ?v_147 ?v_160) ?v_245)) (or (or ?v_88 ?v_113) ?v_251)) (or (or ?v_21 P46) ?v_252)) (or (or ?v_11 ?v_174) ?v_71)) (or (or ?v_97 ?v_137) ?v_94)) (or (or ?v_236 ?v_109) ?v_208)) (or (or P11 ?v_77) ?v_35)) (or (or ?v_6 ?v_76) ?v_91)) (or (or ?v_117 ?v_65) ?v_175)) (or (or ?v_123 ?v_83) ?v_4)) (or (or ?v_133 ?v_108) P35)) (or (or ?v_69 ?v_154) ?v_102)) (or (or ?v_70 P37) ?v_245)) (or (or ?v_33 ?v_29) ?v_247)) (or (or P29 ?v_144) ?v_30)) (or (or ?v_157 ?v_59) ?v_11)) (or (or ?v_205 ?v_206) ?v_181)) (or (or ?v_186 ?v_106) ?v_60)) (or (or ?v_92 ?v_253) P42)) (or (or P13 ?v_155) ?v_13)) (or (or ?v_239 P30) ?v_89)) (or (or ?v_202 ?v_77) ?v_212)) (or (or ?v_187 ?v_239) ?v_119)) (or (or ?v_159 ?v_118) ?v_208)) (or (or ?v_224 ?v_254) ?v_42)) (or (or ?v_228 ?v_198) ?v_10)) (or (or ?v_16 ?v_250) ?v_199)) (or (or ?v_185 ?v_60) ?v_91)) (or (or ?v_190 ?v_40) ?v_111)) (or (or ?v_58 ?v_89) ?v_22)) (or (or ?v_255 ?v_25) ?v_256)) (or (or ?v_97 ?v_236) ?v_10)) (or (or P8 ?v_249) ?v_215)) (or (or ?v_211 ?v_127) ?v_49)) (or (or ?v_10 ?v_53) ?v_80)) (or (or ?v_161 ?v_28) ?v_208)) (or (or ?v_162 ?v_28) ?v_223)) (or (or ?v_108 P41) ?v_26)) (or (or ?v_142 ?v_122) ?v_103)) (or (or ?v_200 ?v_240) ?v_198)) (or (or ?v_188 ?v_150) P30)) (or (or P1 ?v_90) ?v_76)) (or (or P0 ?v_106) P26)) (or (or ?v_91 ?v_241) ?v_148)) (or (or ?v_16 P28) ?v_64)) (or (or P43 ?v_239) ?v_199)) (or (or P16 ?v_10) ?v_249)) (or (or ?v_213 ?v_96) ?v_107)) (or (or ?v_227 ?v_140) ?v_0)) (or (or ?v_44 ?v_64) ?v_180)) (or (or ?v_39 ?v_83) P30)) (or (or ?v_91 P2) ?v_170)) (or (or ?v_257 P41) ?v_149)) (or (or ?v_237 ?v_130) ?v_20)) (or (or ?v_252 ?v_82) ?v_128)) (or (or P12 ?v_222) ?v_60)) (or (or ?v_174 ?v_98) ?v_92)) (or (or ?v_92 ?v_199) ?v_10)) (or (or ?v_159 ?v_223) ?v_197)) (or (or ?v_31 P28) ?v_104)) (or (or ?v_163 ?v_175) P11)) (or (or ?v_249 ?v_197) ?v_123)) (or (or ?v_119 ?v_54) ?v_147)) (or (or ?v_117 ?v_172) ?v_167)) (or (or P0 P12) P42)) (or (or ?v_11 P6) ?v_126)) (or (or ?v_73 P46) P0)) (or (or ?v_230 ?v_216) ?v_257)) (or (or ?v_183 ?v_52) ?v_68)) (or (or ?v_4 ?v_252) P4)) (or (or P16 ?v_114) ?v_112)) (or (or P18 ?v_52) P19)) (or (or ?v_154 ?v_117) ?v_190)) (or (or P0 ?v_14) ?v_152)) (or (or ?v_84 ?v_71) ?v_143)) (or (or ?v_187 ?v_90) ?v_202)) (or (or ?v_43 ?v_55) P47)) (or (or ?v_74 ?v_236) ?v_161)) (or (or ?v_167 ?v_13) ?v_106)) (or (or ?v_197 ?v_251) ?v_186)) (or (or ?v_46 P12) P11)) (or (or P48 ?v_24) ?v_80)) (or (or P26 ?v_164) ?v_66)) (or (or ?v_52 ?v_201) ?v_180)) (or (or ?v_28 ?v_186) ?v_218)) (or (or ?v_118 ?v_128) ?v_254)) (or (or ?v_6 ?v_162) ?v_165)) (or (or ?v_217 ?v_50) P15)) (or (or ?v_141 P42) ?v_229)) (or (or ?v_114 P16) ?v_156)) (or (or P26 ?v_72) ?v_196)) (or (or ?v_188 ?v_84) P31)) (or (or ?v_198 ?v_256) ?v_116)) (or (or ?v_231 ?v_195) ?v_85)) (or (or ?v_24 P8) P1)) (or (or ?v_72 ?v_99) ?v_252)) (or (or ?v_12 P12) ?v_204)) (or (or ?v_7 ?v_94) ?v_99)) (or (or ?v_145 ?v_127) ?v_245)) (or (or P11 ?v_68) ?v_71)) (or (or ?v_243 ?v_236) ?v_219)) (or (or P43 ?v_184) P26)) (or (or ?v_52 ?v_132) ?v_45)) (or (or ?v_226 ?v_58) ?v_115)) (or (or ?v_60 P28) ?v_114)) (or (or ?v_142 ?v_218) ?v_222)) (or (or ?v_181 P40) ?v_177)) (or (or ?v_36 ?v_202) ?v_137)) (or (or ?v_66 P20) P15)) (or (or ?v_122 P31) ?v_211)) (or (or ?v_113 P16) P35)) (or (or ?v_256 P1) ?v_116)) (or (or ?v_243 ?v_156) P48)) (or (or P37 ?v_220) ?v_112)) (or (or ?v_106 P13) ?v_219)) (or (or ?v_172 ?v_82) ?v_108)) (or (or ?v_247 P8) ?v_14)) (or (or ?v_60 ?v_4) ?v_118)) (or (or P21 P32) ?v_216)) (or (or P3 P24) ?v_6)) (or (or ?v_166 ?v_213) ?v_16)) (or (or P34 ?v_208) ?v_22)) (or (or P1 ?v_151) ?v_173)) (or (or ?v_259 P37) ?v_204)) (or (or ?v_121 P23) ?v_13)) (or (or ?v_86 ?v_197) ?v_91)) (or (or P47 ?v_173) ?v_170)) (or (or ?v_208 ?v_130) P6)) (or (or ?v_83 ?v_203) ?v_57)) (or (or ?v_63 ?v_257) ?v_143)) (or (or ?v_162 ?v_107) ?v_154)) (or (or ?v_167 ?v_66) ?v_64)) (or (or ?v_258 ?v_26) ?v_185)) (or (or ?v_177 ?v_201) ?v_97)) (or (or ?v_11 P15) ?v_205)) (or (or ?v_149 P15) P6)) (or (or ?v_11 ?v_206) ?v_239)) (or (or ?v_23 ?v_202) ?v_7)) (or (or ?v_21 ?v_90) ?v_6)) (or (or P11 ?v_222) ?v_59)) (or (or ?v_178 ?v_110) ?v_72)) (or (or ?v_70 ?v_177) ?v_255)) (or (or ?v_25 ?v_110) ?v_247)) (or (or ?v_50 ?v_207) ?v_120)) (or (or ?v_118 P24) ?v_256)) (or (or ?v_36 ?v_47) ?v_59)) (or (or ?v_167 ?v_181) ?v_159)) (or (or ?v_95 ?v_96) ?v_75)) (or (or ?v_188 ?v_56) ?v_132)) (or (or ?v_203 ?v_119) ?v_155)) (or (or P8 ?v_151) ?v_242)) (or (or ?v_124 ?v_213) ?v_248)) (or (or ?v_160 ?v_259) P42)) (or (or P6 ?v_248) ?v_215)) (or (or ?v_184 ?v_169) ?v_22)) (or (or ?v_136 ?v_108) ?v_53)) (or (or ?v_116 ?v_249) ?v_227)) (or (or ?v_76 ?v_199) ?v_203)) (or (or P11 ?v_40) ?v_151)) (or (or P12 ?v_260) ?v_1)) (or (or ?v_249 ?v_59) ?v_225)) (or (or ?v_113 ?v_221) ?v_182)) (or (or ?v_110 ?v_120) ?v_174)) (or ?v_261 ?v_88)) (or (or ?v_47 ?v_246) ?v_214)) (or (or ?v_156 P10) ?v_73)) (or (or ?v_133 ?v_252) ?v_41)) (or (or ?v_101 ?v_227) ?v_67)) (or (or ?v_242 ?v_151) P46)) (or (or ?v_141 ?v_172) ?v_151)) (or (or ?v_43 ?v_169) ?v_226)) (or (or ?v_60 ?v_195) ?v_189)) (or (or ?v_202 ?v_163) ?v_168)) (or (or ?v_78 ?v_21) ?v_177)) (or (or ?v_20 ?v_42) ?v_66)) (or (or P30 ?v_218) ?v_5)) (or (or ?v_171 ?v_6) ?v_96)) (or (or ?v_78 ?v_210) P49)) (or (or ?v_127 ?v_36) ?v_256)))))))))))))))))))))))))))))))))))
(check-sat)
(exit)
